Version identifier: 22.1.1.0 | 2022-11-28 | 9160aff4d
CPXPARAM_ClockType                               1
CPXPARAM_Read_DataCheck                          1
CPXPARAM_Threads                                 1
CPXPARAM_TimeLimit                               7200
CPXPARAM_MIP_Tolerances_AbsMIPGap                0
CPXPARAM_MIP_Tolerances_MIPGap                   0
CPXPARAM_MIP_Tolerances_Integrality              0
Tried aggregator 1 time.
MIP Presolve eliminated 2983 rows and 1 columns.
MIP Presolve modified 1122 coefficients.
Reduced MIP has 5716 rows, 2499 columns, and 17084 nonzeros.
Reduced MIP has 2499 binaries, 0 generals, 0 SOSs, and 0 indicators.
Presolve time = 0.02 sec. (14.12 ticks)
Probing time = 0.00 sec. (2.89 ticks)
Tried aggregator 1 time.
Detecting symmetries...
MIP Presolve eliminated 200 rows and 0 columns.
Reduced MIP has 5516 rows, 2499 columns, and 16084 nonzeros.
Reduced MIP has 2499 binaries, 0 generals, 0 SOSs, and 0 indicators.
Presolve time = 0.02 sec. (13.76 ticks)
Probing time = 0.02 sec. (5.76 ticks)
Clique table members: 9812.
MIP emphasis: balance optimality and feasibility.
MIP search method: dynamic search.
Parallel mode: none, using 1 thread.
Root relaxation solution time = 0.27 sec. (154.53 ticks)

        Nodes                                         Cuts/
   Node  Left     Objective  IInf  Best Integer    Best Bound    ItCnt     Gap

      0     0      200.0000   846                    200.0000     1915         
*     0+    0                          172.0000      200.0000            16.28%
*     0+    0                          200.0000      200.0000             0.00%
      0     0        cutoff            200.0000      200.0000     1915    0.00%
Elapsed time = 1.62 sec. (1051.33 ticks, tree = 0.01 MB, solutions = 2)

Root node processing (before b&c):
  Real time             =    1.62 sec. (1051.44 ticks)
Sequential b&c:
  Real time             =    0.00 sec. (0.00 ticks)
                          ------------
Total (root+branch&cut) =    1.62 sec. (1051.44 ticks)
Solution is feasible.

---------------------
@@@ MIP_optimal
>>> Benchmark sw100-15.cnf k 2 OPT 200 TimeCost 2.171616554260254 TimeSolve 1.6429574489593506 TimeRead 0.014785051345825195 TimeTrans 0.5138740539550781
